2,6
4,5
6,3
8,1
9,9
11,6
13,3
15,4
17,6
19,9
22,1
24,3
26,5
28,7
30,9
33,1
35,3
37,5
39,7
41,9
44,1
46,3
46,3
46,3
46,3
46,3
46,3
46,3
46,3
46,3
46,3
46,3
46,3
46,3
46,3
46,3
46,3
46,3
46,3
46,3
46,3
46,3
46,3
46,3
46,3
46,3
0,0
0,0
